NAME: tsp50_29
COMMENT: 50-tsp problem (Padberg/Rinaldi)
TYPE: TSP
DIMENSION: 50
EDGE_WEIGHT_TYPE : EUC_2D
NODE_COORD_SECTION
1 13 22
2 0 17
3 22 6
4 12 13
5 38 18
6 13 28
7 1 37
8 22 21
9 23 16
10 8 16
11 38 3
12 34 18
13 29 9
14 34 36
15 16 9
16 26 30
17 28 25
18 22 39
19 40 4
20 12 8
21 3 12
22 30 26
23 3 4
24 5 6
25 20 30
26 35 9
27 6 7
28 17 18
29 30 16
30 8 16
31 9 28
32 33 27
33 26 34
34 31 39
35 30 5
36 18 38
37 15 36
38 2 5
39 33 33
40 30 1
41 33 12
42 40 19
43 34 22
44 6 15
45 24 32
46 1 33
47 5 34
48 6 19
49 25 2
50 28 2
